20	5
0	8	4	1	6	3	5	7	2	8
1	2	20	18
2	1	12
3	3	13	20	19
4	1	17
5	4	16	19	20	13
6	1	9
7	1	13
8	1	16
9	3	18	10	19
10	1	15
11	3	10	14	17
12	0
13	1	14
14	1	21
15	1	21
16	1	21
17	1	21
18	1	21
19	1	21
20	1	21
21	0
0	0	0	0	0	0	0
1	7	1	4	3	4	0
2	7	0	4	0	1	5
3	6	4	3	5	1	5
4	8	4	5	4	2	2
5	5	0	4	0	4	5
6	4	5	1	4	0	4
7	6	3	1	5	0	5
8	2	0	0	2	1	3
9	1	0	2	4	0	4
10	5	3	0	1	0	0
11	6	1	5	2	5	5
12	10	2	0	3	0	0
13	1	3	3	5	0	0
14	6	3	4	0	4	0
15	1	2	2	2	5	5
16	7	4	3	1	1	5
17	9	1	1	2	5	2
18	6	5	1	5	0	2
19	8	1	4	0	3	4
20	3	5	0	3	1	0
21	0	0	0	0	0	0
9	10	10	7	12
